120
150
35
34
88
96
98
85
38
65
33
54
51
43
38
74
71
78
96
28
38
29
32
35
83
38
85
75
74
78
46
65
85
27
39
33
78
98
74
74
90
34
51
24
24
39
68
43
26
20
57
83
27
27
51
34
65
51
65
78
38
61
24
65
67
38
73
35
46
51
34
71
78
65
57
91
45
42
40
34
54
96
34
89
26
40
39
75
83
75
40
32
61
89
35
75
75
35
31
39
57
54
88
33
29
100
74
32
50
67
83
71
78
63
87
57
90
44
57
90
85
63
